; benchmark generated from python API
(set-info :status unknown)
(declare-fun cell_1_1 () Int)
(declare-fun cell_1_2 () Int)
(declare-fun cell_1_3 () Int)
(declare-fun cell_1_4 () Int)
(declare-fun cell_1_5 () Int)
(declare-fun cell_1_6 () Int)
(declare-fun cell_1_7 () Int)
(declare-fun cell_2_1 () Int)
(declare-fun cell_3_1 () Int)
(declare-fun cell_4_1 () Int)
(declare-fun cell_5_1 () Int)
(declare-fun cell_6_1 () Int)
(declare-fun cell_7_1 () Int)
(declare-fun cell_8_1 () Int)
(declare-fun cell_9_1 () Int)
(declare-fun cell_2_2 () Int)
(declare-fun cell_3_2 () Int)
(declare-fun cell_4_2 () Int)
(declare-fun cell_5_2 () Int)
(declare-fun cell_6_2 () Int)
(declare-fun cell_7_2 () Int)
(declare-fun cell_8_2 () Int)
(declare-fun cell_9_2 () Int)
(declare-fun cell_2_3 () Int)
(declare-fun cell_3_3 () Int)
(declare-fun cell_4_3 () Int)
(declare-fun cell_5_3 () Int)
(declare-fun cell_6_3 () Int)
(declare-fun cell_7_3 () Int)
(declare-fun cell_8_3 () Int)
(declare-fun cell_9_3 () Int)
(declare-fun cell_2_4 () Int)
(declare-fun cell_3_4 () Int)
(declare-fun cell_4_4 () Int)
(declare-fun cell_5_4 () Int)
(declare-fun cell_6_4 () Int)
(declare-fun cell_7_4 () Int)
(declare-fun cell_8_4 () Int)
(declare-fun cell_9_4 () Int)
(declare-fun cell_2_5 () Int)
(declare-fun cell_3_5 () Int)
(declare-fun cell_4_5 () Int)
(declare-fun cell_5_5 () Int)
(declare-fun cell_6_5 () Int)
(declare-fun cell_7_5 () Int)
(declare-fun cell_8_5 () Int)
(declare-fun cell_9_5 () Int)
(declare-fun cell_2_6 () Int)
(declare-fun cell_3_6 () Int)
(declare-fun cell_4_6 () Int)
(declare-fun cell_5_6 () Int)
(declare-fun cell_6_6 () Int)
(declare-fun cell_7_6 () Int)
(declare-fun cell_8_6 () Int)
(declare-fun cell_9_6 () Int)
(declare-fun cell_2_7 () Int)
(declare-fun cell_3_7 () Int)
(declare-fun cell_4_7 () Int)
(declare-fun cell_5_7 () Int)
(declare-fun cell_6_7 () Int)
(declare-fun cell_7_7 () Int)
(declare-fun cell_8_7 () Int)
(declare-fun cell_9_7 () Int)
(declare-fun cell_1_8 () Int)
(declare-fun cell_2_8 () Int)
(declare-fun cell_3_8 () Int)
(declare-fun cell_4_8 () Int)
(declare-fun cell_5_8 () Int)
(declare-fun cell_6_8 () Int)
(declare-fun cell_7_8 () Int)
(declare-fun cell_8_8 () Int)
(declare-fun cell_9_8 () Int)
(declare-fun cell_1_9 () Int)
(declare-fun cell_2_9 () Int)
(declare-fun cell_3_9 () Int)
(declare-fun cell_4_9 () Int)
(declare-fun cell_5_9 () Int)
(declare-fun cell_6_9 () Int)
(declare-fun cell_7_9 () Int)
(declare-fun cell_8_9 () Int)
(declare-fun cell_9_9 () Int)
(assert
 (= cell_1_1 2))
(assert
 (= cell_1_2 7))
(assert
 (= cell_1_3 6))
(assert
 (= cell_1_4 4))
(assert
 (= cell_1_5 9))
(assert
 (= cell_1_6 8))
(assert
 (= cell_1_7 1))
(assert
 (let (($x193 (= cell_1_1 2)))
 (or (= cell_1_1 1) $x193 (= cell_1_1 3) (= cell_1_1 4) (= cell_1_1 5) (= cell_1_1 6) (= cell_1_1 7) (= cell_1_1 8) (= cell_1_1 9))))
(assert
 (let (($x1278 (= cell_2_1 7)))
 (let (($x617 (= cell_2_1 6)))
 (let (($x2124 (= cell_2_1 2)))
 (or (= cell_2_1 1) $x2124 (= cell_2_1 3) (= cell_2_1 4) (= cell_2_1 5) $x617 $x1278 (= cell_2_1 8) (= cell_2_1 9))))))
(assert
 (let (($x3524 (= cell_3_1 7)))
 (let (($x739 (= cell_3_1 6)))
 (let (($x1516 (= cell_3_1 2)))
 (or (= cell_3_1 1) $x1516 (= cell_3_1 3) (= cell_3_1 4) (= cell_3_1 5) $x739 $x3524 (= cell_3_1 8) (= cell_3_1 9))))))
(assert
 (let (($x3367 (= cell_4_1 2)))
 (or (= cell_4_1 1) $x3367 (= cell_4_1 3) (= cell_4_1 4) (= cell_4_1 5) (= cell_4_1 6) (= cell_4_1 7) (= cell_4_1 8) (= cell_4_1 9))))
(assert
 (let (($x3007 (= cell_5_1 2)))
 (or (= cell_5_1 1) $x3007 (= cell_5_1 3) (= cell_5_1 4) (= cell_5_1 5) (= cell_5_1 6) (= cell_5_1 7) (= cell_5_1 8) (= cell_5_1 9))))
(assert
 (let (($x3238 (= cell_6_1 2)))
 (or (= cell_6_1 1) $x3238 (= cell_6_1 3) (= cell_6_1 4) (= cell_6_1 5) (= cell_6_1 6) (= cell_6_1 7) (= cell_6_1 8) (= cell_6_1 9))))
(assert
 (let (($x28 (= cell_7_1 2)))
 (or (= cell_7_1 1) $x28 (= cell_7_1 3) (= cell_7_1 4) (= cell_7_1 5) (= cell_7_1 6) (= cell_7_1 7) (= cell_7_1 8) (= cell_7_1 9))))
(assert
 (let (($x2013 (= cell_8_1 2)))
 (or (= cell_8_1 1) $x2013 (= cell_8_1 3) (= cell_8_1 4) (= cell_8_1 5) (= cell_8_1 6) (= cell_8_1 7) (= cell_8_1 8) (= cell_8_1 9))))
(assert
 (let (($x2738 (= cell_9_1 2)))
 (or (= cell_9_1 1) $x2738 (= cell_9_1 3) (= cell_9_1 4) (= cell_9_1 5) (= cell_9_1 6) (= cell_9_1 7) (= cell_9_1 8) (= cell_9_1 9))))
(assert
 (let (($x515 (= cell_1_2 7)))
 (or (= cell_1_2 1) (= cell_1_2 2) (= cell_1_2 3) (= cell_1_2 4) (= cell_1_2 5) (= cell_1_2 6) $x515 (= cell_1_2 8) (= cell_1_2 9))))
(assert
 (let (($x179 (= cell_2_2 7)))
 (let (($x552 (= cell_2_2 6)))
 (let (($x2082 (= cell_2_2 2)))
 (or (= cell_2_2 1) $x2082 (= cell_2_2 3) (= cell_2_2 4) (= cell_2_2 5) $x552 $x179 (= cell_2_2 8) (= cell_2_2 9))))))
(assert
 (let (($x1880 (= cell_3_2 7)))
 (let (($x270 (= cell_3_2 6)))
 (let (($x2273 (= cell_3_2 2)))
 (or (= cell_3_2 1) $x2273 (= cell_3_2 3) (= cell_3_2 4) (= cell_3_2 5) $x270 $x1880 (= cell_3_2 8) (= cell_3_2 9))))))
(assert
 (let (($x2987 (= cell_4_2 9)))
 (let (($x947 (= cell_4_2 7)))
 (or (= cell_4_2 1) (= cell_4_2 2) (= cell_4_2 3) (= cell_4_2 4) (= cell_4_2 5) (= cell_4_2 6) $x947 (= cell_4_2 8) $x2987))))
(assert
 (let (($x2564 (= cell_5_2 7)))
 (or (= cell_5_2 1) (= cell_5_2 2) (= cell_5_2 3) (= cell_5_2 4) (= cell_5_2 5) (= cell_5_2 6) $x2564 (= cell_5_2 8) (= cell_5_2 9))))
(assert
 (let (($x1460 (= cell_6_2 7)))
 (or (= cell_6_2 1) (= cell_6_2 2) (= cell_6_2 3) (= cell_6_2 4) (= cell_6_2 5) (= cell_6_2 6) $x1460 (= cell_6_2 8) (= cell_6_2 9))))
(assert
 (let (($x2950 (= cell_7_2 7)))
 (or (= cell_7_2 1) (= cell_7_2 2) (= cell_7_2 3) (= cell_7_2 4) (= cell_7_2 5) (= cell_7_2 6) $x2950 (= cell_7_2 8) (= cell_7_2 9))))
(assert
 (let (($x1361 (= cell_8_2 7)))
 (or (= cell_8_2 1) (= cell_8_2 2) (= cell_8_2 3) (= cell_8_2 4) (= cell_8_2 5) (= cell_8_2 6) $x1361 (= cell_8_2 8) (= cell_8_2 9))))
(assert
 (let (($x3369 (= cell_9_2 7)))
 (or (= cell_9_2 1) (= cell_9_2 2) (= cell_9_2 3) (= cell_9_2 4) (= cell_9_2 5) (= cell_9_2 6) $x3369 (= cell_9_2 8) (= cell_9_2 9))))
(assert
 (let (($x1023 (= cell_1_3 6)))
 (or (= cell_1_3 1) (= cell_1_3 2) (= cell_1_3 3) (= cell_1_3 4) (= cell_1_3 5) $x1023 (= cell_1_3 7) (= cell_1_3 8) (= cell_1_3 9))))
(assert
 (let (($x3667 (= cell_2_3 7)))
 (let (($x3307 (= cell_2_3 6)))
 (let (($x2332 (= cell_2_3 2)))
 (or (= cell_2_3 1) $x2332 (= cell_2_3 3) (= cell_2_3 4) (= cell_2_3 5) $x3307 $x3667 (= cell_2_3 8) (= cell_2_3 9))))))
(assert
 (let (($x3161 (= cell_3_3 9)))
 (let (($x982 (= cell_3_3 7)))
 (let (($x2010 (= cell_3_3 6)))
 (let (($x2036 (= cell_3_3 2)))
 (or (= cell_3_3 1) $x2036 (= cell_3_3 3) (= cell_3_3 4) (= cell_3_3 5) $x2010 $x982 (= cell_3_3 8) $x3161))))))
(assert
 (let (($x2514 (= cell_4_3 6)))
 (or (= cell_4_3 1) (= cell_4_3 2) (= cell_4_3 3) (= cell_4_3 4) (= cell_4_3 5) $x2514 (= cell_4_3 7) (= cell_4_3 8) (= cell_4_3 9))))
(assert
 (let (($x3446 (= cell_5_3 6)))
 (or (= cell_5_3 1) (= cell_5_3 2) (= cell_5_3 3) (= cell_5_3 4) (= cell_5_3 5) $x3446 (= cell_5_3 7) (= cell_5_3 8) (= cell_5_3 9))))
(assert
 (let (($x1291 (= cell_6_3 6)))
 (or (= cell_6_3 1) (= cell_6_3 2) (= cell_6_3 3) (= cell_6_3 4) (= cell_6_3 5) $x1291 (= cell_6_3 7) (= cell_6_3 8) (= cell_6_3 9))))
(assert
 (let (($x936 (= cell_7_3 6)))
 (or (= cell_7_3 1) (= cell_7_3 2) (= cell_7_3 3) (= cell_7_3 4) (= cell_7_3 5) $x936 (= cell_7_3 7) (= cell_7_3 8) (= cell_7_3 9))))
(assert
 (let (($x233 (= cell_8_3 6)))
 (or (= cell_8_3 1) (= cell_8_3 2) (= cell_8_3 3) (= cell_8_3 4) (= cell_8_3 5) $x233 (= cell_8_3 7) (= cell_8_3 8) (= cell_8_3 9))))
(assert
 (let (($x1961 (= cell_9_3 6)))
 (or (= cell_9_3 1) (= cell_9_3 2) (= cell_9_3 3) (= cell_9_3 4) (= cell_9_3 5) $x1961 (= cell_9_3 7) (= cell_9_3 8) (= cell_9_3 9))))
(assert
 (let (($x2756 (= cell_1_4 4)))
 (or (= cell_1_4 1) (= cell_1_4 2) (= cell_1_4 3) $x2756 (= cell_1_4 5) (= cell_1_4 6) (= cell_1_4 7) (= cell_1_4 8) (= cell_1_4 9))))
(assert
 (let (($x1957 (= cell_2_4 9)))
 (let (($x2192 (= cell_2_4 8)))
 (let (($x1722 (= cell_2_4 4)))
 (or (= cell_2_4 1) (= cell_2_4 2) (= cell_2_4 3) $x1722 (= cell_2_4 5) (= cell_2_4 6) (= cell_2_4 7) $x2192 $x1957)))))
(assert
 (let (($x2946 (= cell_3_4 9)))
 (let (($x6653 (= cell_3_4 8)))
 (let (($x2700 (= cell_3_4 7)))
 (let (($x3029 (= cell_3_4 4)))
 (or (= cell_3_4 1) (= cell_3_4 2) (= cell_3_4 3) $x3029 (= cell_3_4 5) (= cell_3_4 6) $x2700 $x6653 $x2946))))))
(assert
 (let (($x1495 (= cell_4_4 4)))
 (or (= cell_4_4 1) (= cell_4_4 2) (= cell_4_4 3) $x1495 (= cell_4_4 5) (= cell_4_4 6) (= cell_4_4 7) (= cell_4_4 8) (= cell_4_4 9))))
(assert
 (let (($x248 (= cell_5_4 4)))
 (or (= cell_5_4 1) (= cell_5_4 2) (= cell_5_4 3) $x248 (= cell_5_4 5) (= cell_5_4 6) (= cell_5_4 7) (= cell_5_4 8) (= cell_5_4 9))))
(assert
 (let (($x808 (= cell_6_4 4)))
 (or (= cell_6_4 1) (= cell_6_4 2) (= cell_6_4 3) $x808 (= cell_6_4 5) (= cell_6_4 6) (= cell_6_4 7) (= cell_6_4 8) (= cell_6_4 9))))
(assert
 (let (($x999 (= cell_7_4 4)))
 (or (= cell_7_4 1) (= cell_7_4 2) (= cell_7_4 3) $x999 (= cell_7_4 5) (= cell_7_4 6) (= cell_7_4 7) (= cell_7_4 8) (= cell_7_4 9))))
(assert
 (let (($x2785 (= cell_8_4 4)))
 (or (= cell_8_4 1) (= cell_8_4 2) (= cell_8_4 3) $x2785 (= cell_8_4 5) (= cell_8_4 6) (= cell_8_4 7) (= cell_8_4 8) (= cell_8_4 9))))
(assert
 (let (($x2904 (= cell_9_4 4)))
 (or (= cell_9_4 1) (= cell_9_4 2) (= cell_9_4 3) $x2904 (= cell_9_4 5) (= cell_9_4 6) (= cell_9_4 7) (= cell_9_4 8) (= cell_9_4 9))))
(assert
 (let (($x1609 (= cell_1_5 9)))
 (or (= cell_1_5 1) (= cell_1_5 2) (= cell_1_5 3) (= cell_1_5 4) (= cell_1_5 5) (= cell_1_5 6) (= cell_1_5 7) (= cell_1_5 8) $x1609)))
(assert
 (let (($x3020 (= cell_2_5 9)))
 (let (($x1277 (= cell_2_5 8)))
 (let (($x1828 (= cell_2_5 4)))
 (or (= cell_2_5 1) (= cell_2_5 2) (= cell_2_5 3) $x1828 (= cell_2_5 5) (= cell_2_5 6) (= cell_2_5 7) $x1277 $x3020)))))
(assert
 (let (($x630 (= cell_3_5 9)))
 (let (($x682 (= cell_3_5 8)))
 (let (($x2957 (= cell_3_5 4)))
 (or (= cell_3_5 1) (= cell_3_5 2) (= cell_3_5 3) $x2957 (= cell_3_5 5) (= cell_3_5 6) (= cell_3_5 7) $x682 $x630)))))
(assert
 (let (($x2334 (= cell_4_5 9)))
 (let (($x1388 (= cell_4_5 7)))
 (or (= cell_4_5 1) (= cell_4_5 2) (= cell_4_5 3) (= cell_4_5 4) (= cell_4_5 5) (= cell_4_5 6) $x1388 (= cell_4_5 8) $x2334))))
(assert
 (let (($x1033 (= cell_5_5 9)))
 (or (= cell_5_5 1) (= cell_5_5 2) (= cell_5_5 3) (= cell_5_5 4) (= cell_5_5 5) (= cell_5_5 6) (= cell_5_5 7) (= cell_5_5 8) $x1033)))
(assert
 (let (($x2552 (= cell_6_5 9)))
 (or (= cell_6_5 1) (= cell_6_5 2) (= cell_6_5 3) (= cell_6_5 4) (= cell_6_5 5) (= cell_6_5 6) (= cell_6_5 7) (= cell_6_5 8) $x2552)))
(assert
 (let (($x919 (= cell_7_5 9)))
 (or (= cell_7_5 1) (= cell_7_5 2) (= cell_7_5 3) (= cell_7_5 4) (= cell_7_5 5) (= cell_7_5 6) (= cell_7_5 7) (= cell_7_5 8) $x919)))
(assert
 (let (($x2995 (= cell_8_5 9)))
 (or (= cell_8_5 1) (= cell_8_5 2) (= cell_8_5 3) (= cell_8_5 4) (= cell_8_5 5) (= cell_8_5 6) (= cell_8_5 7) (= cell_8_5 8) $x2995)))
(assert
 (let (($x3792 (= cell_9_5 9)))
 (or (= cell_9_5 1) (= cell_9_5 2) (= cell_9_5 3) (= cell_9_5 4) (= cell_9_5 5) (= cell_9_5 6) (= cell_9_5 7) (= cell_9_5 8) $x3792)))
(assert
 (let (($x2383 (= cell_1_6 8)))
 (or (= cell_1_6 1) (= cell_1_6 2) (= cell_1_6 3) (= cell_1_6 4) (= cell_1_6 5) (= cell_1_6 6) (= cell_1_6 7) $x2383 (= cell_1_6 9))))
(assert
 (let (($x3558 (= cell_2_6 9)))
 (let (($x33 (= cell_2_6 8)))
 (let (($x2526 (= cell_2_6 4)))
 (or (= cell_2_6 1) (= cell_2_6 2) (= cell_2_6 3) $x2526 (= cell_2_6 5) (= cell_2_6 6) (= cell_2_6 7) $x33 $x3558)))))
(assert
 (let (($x2369 (= cell_3_6 9)))
 (let (($x2819 (= cell_3_6 8)))
 (let (($x4214 (= cell_3_6 4)))
 (or (= cell_3_6 1) (= cell_3_6 2) (= cell_3_6 3) $x4214 (= cell_3_6 5) (= cell_3_6 6) (= cell_3_6 7) $x2819 $x2369)))))
(assert
 (let (($x1405 (= cell_4_6 8)))
 (or (= cell_4_6 1) (= cell_4_6 2) (= cell_4_6 3) (= cell_4_6 4) (= cell_4_6 5) (= cell_4_6 6) (= cell_4_6 7) $x1405 (= cell_4_6 9))))
(assert
 (let (($x2338 (= cell_5_6 8)))
 (let (($x567 (= cell_5_6 7)))
 (or (= cell_5_6 1) (= cell_5_6 2) (= cell_5_6 3) (= cell_5_6 4) (= cell_5_6 5) (= cell_5_6 6) $x567 $x2338 (= cell_5_6 9)))))
(assert
 (let (($x1482 (= cell_6_6 8)))
 (or (= cell_6_6 1) (= cell_6_6 2) (= cell_6_6 3) (= cell_6_6 4) (= cell_6_6 5) (= cell_6_6 6) (= cell_6_6 7) $x1482 (= cell_6_6 9))))
(assert
 (let (($x4196 (= cell_7_6 8)))
 (or (= cell_7_6 1) (= cell_7_6 2) (= cell_7_6 3) (= cell_7_6 4) (= cell_7_6 5) (= cell_7_6 6) (= cell_7_6 7) $x4196 (= cell_7_6 9))))
(assert
 (let (($x673 (= cell_8_6 8)))
 (or (= cell_8_6 1) (= cell_8_6 2) (= cell_8_6 3) (= cell_8_6 4) (= cell_8_6 5) (= cell_8_6 6) (= cell_8_6 7) $x673 (= cell_8_6 9))))
(assert
 (let (($x796 (= cell_9_6 8)))
 (or (= cell_9_6 1) (= cell_9_6 2) (= cell_9_6 3) (= cell_9_6 4) (= cell_9_6 5) (= cell_9_6 6) (= cell_9_6 7) $x796 (= cell_9_6 9))))
(assert
 (let (($x2550 (= cell_1_7 1)))
 (or $x2550 (= cell_1_7 2) (= cell_1_7 3) (= cell_1_7 4) (= cell_1_7 5) (= cell_1_7 6) (= cell_1_7 7) (= cell_1_7 8) (= cell_1_7 9))))
(assert
 (let (($x131 (= cell_2_7 1)))
 (or $x131 (= cell_2_7 2) (= cell_2_7 3) (= cell_2_7 4) (= cell_2_7 5) (= cell_2_7 6) (= cell_2_7 7) (= cell_2_7 8) (= cell_2_7 9))))
(assert
 (let (($x438 (= cell_3_7 9)))
 (let (($x3155 (= cell_3_7 1)))
 (or $x3155 (= cell_3_7 2) (= cell_3_7 3) (= cell_3_7 4) (= cell_3_7 5) (= cell_3_7 6) (= cell_3_7 7) (= cell_3_7 8) $x438))))
(assert
 (let (($x2559 (= cell_4_7 1)))
 (or $x2559 (= cell_4_7 2) (= cell_4_7 3) (= cell_4_7 4) (= cell_4_7 5) (= cell_4_7 6) (= cell_4_7 7) (= cell_4_7 8) (= cell_4_7 9))))
(assert
 (let (($x2622 (= cell_5_7 1)))
 (or $x2622 (= cell_5_7 2) (= cell_5_7 3) (= cell_5_7 4) (= cell_5_7 5) (= cell_5_7 6) (= cell_5_7 7) (= cell_5_7 8) (= cell_5_7 9))))
(assert
 (let (($x3297 (= cell_6_7 7)))
 (let (($x1319 (= cell_6_7 1)))
 (or $x1319 (= cell_6_7 2) (= cell_6_7 3) (= cell_6_7 4) (= cell_6_7 5) (= cell_6_7 6) $x3297 (= cell_6_7 8) (= cell_6_7 9)))))
(assert
 (let (($x472 (= cell_7_7 1)))
 (or $x472 (= cell_7_7 2) (= cell_7_7 3) (= cell_7_7 4) (= cell_7_7 5) (= cell_7_7 6) (= cell_7_7 7) (= cell_7_7 8) (= cell_7_7 9))))
(assert
 (let (($x244 (= cell_8_7 1)))
 (or $x244 (= cell_8_7 2) (= cell_8_7 3) (= cell_8_7 4) (= cell_8_7 5) (= cell_8_7 6) (= cell_8_7 7) (= cell_8_7 8) (= cell_8_7 9))))
(assert
 (let (($x79 (= cell_9_7 1)))
 (or $x79 (= cell_9_7 2) (= cell_9_7 3) (= cell_9_7 4) (= cell_9_7 5) (= cell_9_7 6) (= cell_9_7 7) (= cell_9_7 8) (= cell_9_7 9))))
(assert
 (let (($x2071 (= cell_1_8 9)))
 (let (($x2655 (= cell_1_8 8)))
 (let (($x195 (= cell_1_8 7)))
 (let (($x1677 (= cell_1_8 6)))
 (let (($x512 (= cell_1_8 4)))
 (let (($x1581 (= cell_1_8 3)))
 (let (($x1255 (= cell_1_8 2)))
 (let (($x1840 (= cell_1_8 1)))
 (or $x1840 $x1255 $x1581 $x512 (= cell_1_8 5) $x1677 $x195 $x2655 $x2071))))))))))
(assert
 (let (($x1822 (= cell_2_8 1)))
 (or $x1822 (= cell_2_8 2) (= cell_2_8 3) (= cell_2_8 4) (= cell_2_8 5) (= cell_2_8 6) (= cell_2_8 7) (= cell_2_8 8) (= cell_2_8 9))))
(assert
 (let (($x1849 (= cell_3_8 1)))
 (or $x1849 (= cell_3_8 2) (= cell_3_8 3) (= cell_3_8 4) (= cell_3_8 5) (= cell_3_8 6) (= cell_3_8 7) (= cell_3_8 8) (= cell_3_8 9))))
(assert
 (let (($x1120 (= cell_4_8 9)))
 (or (= cell_4_8 1) (= cell_4_8 2) (= cell_4_8 3) (= cell_4_8 4) (= cell_4_8 5) (= cell_4_8 6) (= cell_4_8 7) (= cell_4_8 8) $x1120)))
(assert
 (or (= cell_5_8 1) (= cell_5_8 2) (= cell_5_8 3) (= cell_5_8 4) (= cell_5_8 5) (= cell_5_8 6) (= cell_5_8 7) (= cell_5_8 8) (= cell_5_8 9)))
(assert
 (or (= cell_6_8 1) (= cell_6_8 2) (= cell_6_8 3) (= cell_6_8 4) (= cell_6_8 5) (= cell_6_8 6) (= cell_6_8 7) (= cell_6_8 8) (= cell_6_8 9)))
(assert
 (let (($x291 (= cell_7_8 7)))
 (or (= cell_7_8 1) (= cell_7_8 2) (= cell_7_8 3) (= cell_7_8 4) (= cell_7_8 5) (= cell_7_8 6) $x291 (= cell_7_8 8) (= cell_7_8 9))))
(assert
 (or (= cell_8_8 1) (= cell_8_8 2) (= cell_8_8 3) (= cell_8_8 4) (= cell_8_8 5) (= cell_8_8 6) (= cell_8_8 7) (= cell_8_8 8) (= cell_8_8 9)))
(assert
 (or (= cell_9_8 1) (= cell_9_8 2) (= cell_9_8 3) (= cell_9_8 4) (= cell_9_8 5) (= cell_9_8 6) (= cell_9_8 7) (= cell_9_8 8) (= cell_9_8 9)))
(assert
 (let (($x680 (= cell_1_9 9)))
 (let (($x1362 (= cell_1_9 8)))
 (let (($x2680 (= cell_1_9 7)))
 (let (($x716 (= cell_1_9 6)))
 (let (($x2431 (= cell_1_9 4)))
 (let (($x2333 (= cell_1_9 2)))
 (let (($x3422 (= cell_1_9 1)))
 (or $x3422 $x2333 (= cell_1_9 3) $x2431 (= cell_1_9 5) $x716 $x2680 $x1362 $x680)))))))))
(assert
 (let (($x2460 (= cell_2_9 1)))
 (or $x2460 (= cell_2_9 2) (= cell_2_9 3) (= cell_2_9 4) (= cell_2_9 5) (= cell_2_9 6) (= cell_2_9 7) (= cell_2_9 8) (= cell_2_9 9))))
(assert
 (let (($x1242 (= cell_3_9 1)))
 (or $x1242 (= cell_3_9 2) (= cell_3_9 3) (= cell_3_9 4) (= cell_3_9 5) (= cell_3_9 6) (= cell_3_9 7) (= cell_3_9 8) (= cell_3_9 9))))
(assert
 (or (= cell_4_9 1) (= cell_4_9 2) (= cell_4_9 3) (= cell_4_9 4) (= cell_4_9 5) (= cell_4_9 6) (= cell_4_9 7) (= cell_4_9 8) (= cell_4_9 9)))
(assert
 (or (= cell_5_9 1) (= cell_5_9 2) (= cell_5_9 3) (= cell_5_9 4) (= cell_5_9 5) (= cell_5_9 6) (= cell_5_9 7) (= cell_5_9 8) (= cell_5_9 9)))
(assert
 (or (= cell_6_9 1) (= cell_6_9 2) (= cell_6_9 3) (= cell_6_9 4) (= cell_6_9 5) (= cell_6_9 6) (= cell_6_9 7) (= cell_6_9 8) (= cell_6_9 9)))
(assert
 (or (= cell_7_9 1) (= cell_7_9 2) (= cell_7_9 3) (= cell_7_9 4) (= cell_7_9 5) (= cell_7_9 6) (= cell_7_9 7) (= cell_7_9 8) (= cell_7_9 9)))
(assert
 (let (($x3576 (= cell_8_9 7)))
 (or (= cell_8_9 1) (= cell_8_9 2) (= cell_8_9 3) (= cell_8_9 4) (= cell_8_9 5) (= cell_8_9 6) $x3576 (= cell_8_9 8) (= cell_8_9 9))))
(assert
 (or (= cell_9_9 1) (= cell_9_9 2) (= cell_9_9 3) (= cell_9_9 4) (= cell_9_9 5) (= cell_9_9 6) (= cell_9_9 7) (= cell_9_9 8) (= cell_9_9 9)))
(assert
 (and (distinct cell_1_1 cell_1_2 cell_1_3 cell_1_4 cell_1_5 cell_1_6 cell_1_7 cell_1_8 cell_1_9) true))
(assert
 (and (distinct cell_2_1 cell_2_2 cell_2_3 cell_2_4 cell_2_5 cell_2_6 cell_2_7 cell_2_8 cell_2_9) true))
(assert
 (and (distinct cell_3_1 cell_3_2 cell_3_3 cell_3_4 cell_3_5 cell_3_6 cell_3_7 cell_3_8 cell_3_9) true))
(assert
 (and (distinct cell_4_1 cell_4_2 cell_4_3 cell_4_4 cell_4_5 cell_4_6 cell_4_7 cell_4_8 cell_4_9) true))
(assert
 (and (distinct cell_5_1 cell_5_2 cell_5_3 cell_5_4 cell_5_5 cell_5_6 cell_5_7 cell_5_8 cell_5_9) true))
(assert
 (and (distinct cell_6_1 cell_6_2 cell_6_3 cell_6_4 cell_6_5 cell_6_6 cell_6_7 cell_6_8 cell_6_9) true))
(assert
 (and (distinct cell_7_1 cell_7_2 cell_7_3 cell_7_4 cell_7_5 cell_7_6 cell_7_7 cell_7_8 cell_7_9) true))
(assert
 (and (distinct cell_8_1 cell_8_2 cell_8_3 cell_8_4 cell_8_5 cell_8_6 cell_8_7 cell_8_8 cell_8_9) true))
(assert
 (and (distinct cell_9_1 cell_9_2 cell_9_3 cell_9_4 cell_9_5 cell_9_6 cell_9_7 cell_9_8 cell_9_9) true))
(assert
 (and (distinct cell_1_1 cell_2_1 cell_3_1 cell_4_1 cell_5_1 cell_6_1 cell_7_1 cell_8_1 cell_9_1) true))
(assert
 (and (distinct cell_1_2 cell_2_2 cell_3_2 cell_4_2 cell_5_2 cell_6_2 cell_7_2 cell_8_2 cell_9_2) true))
(assert
 (and (distinct cell_1_3 cell_2_3 cell_3_3 cell_4_3 cell_5_3 cell_6_3 cell_7_3 cell_8_3 cell_9_3) true))
(assert
 (and (distinct cell_1_4 cell_2_4 cell_3_4 cell_4_4 cell_5_4 cell_6_4 cell_7_4 cell_8_4 cell_9_4) true))
(assert
 (and (distinct cell_1_5 cell_2_5 cell_3_5 cell_4_5 cell_5_5 cell_6_5 cell_7_5 cell_8_5 cell_9_5) true))
(assert
 (and (distinct cell_1_6 cell_2_6 cell_3_6 cell_4_6 cell_5_6 cell_6_6 cell_7_6 cell_8_6 cell_9_6) true))
(assert
 (and (distinct cell_1_7 cell_2_7 cell_3_7 cell_4_7 cell_5_7 cell_6_7 cell_7_7 cell_8_7 cell_9_7) true))
(assert
 (and (distinct cell_1_8 cell_2_8 cell_3_8 cell_4_8 cell_5_8 cell_6_8 cell_7_8 cell_8_8 cell_9_8) true))
(assert
 (and (distinct cell_1_9 cell_2_9 cell_3_9 cell_4_9 cell_5_9 cell_6_9 cell_7_9 cell_8_9 cell_9_9) true))
(assert
 (and (distinct cell_1_1 cell_1_2 cell_1_3 cell_2_1 cell_2_2 cell_2_3 cell_3_1 cell_3_2 cell_3_3) true))
(assert
 (and (distinct cell_1_4 cell_1_5 cell_1_6 cell_2_4 cell_2_5 cell_2_6 cell_3_4 cell_3_5 cell_3_6) true))
(assert
 (and (distinct cell_1_7 cell_1_8 cell_1_9 cell_2_7 cell_2_8 cell_2_9 cell_3_7 cell_3_8 cell_3_9) true))
(assert
 (and (distinct cell_4_1 cell_4_2 cell_4_3 cell_5_1 cell_5_2 cell_5_3 cell_6_1 cell_6_2 cell_6_3) true))
(assert
 (and (distinct cell_4_4 cell_4_5 cell_4_6 cell_5_4 cell_5_5 cell_5_6 cell_6_4 cell_6_5 cell_6_6) true))
(assert
 (and (distinct cell_4_7 cell_4_8 cell_4_9 cell_5_7 cell_5_8 cell_5_9 cell_6_7 cell_6_8 cell_6_9) true))
(assert
 (and (distinct cell_7_1 cell_7_2 cell_7_3 cell_8_1 cell_8_2 cell_8_3 cell_9_1 cell_9_2 cell_9_3) true))
(assert
 (and (distinct cell_7_4 cell_7_5 cell_7_6 cell_8_4 cell_8_5 cell_8_6 cell_9_4 cell_9_5 cell_9_6) true))
(assert
 (and (distinct cell_7_7 cell_7_8 cell_7_9 cell_8_7 cell_8_8 cell_8_9 cell_9_7 cell_9_8 cell_9_9) true))
(assert
 (let (($x2405 (and (distinct cell_5_9 cell_6_8 cell_7_7 cell_8_6) true)))
 (let (($x3217 (and (distinct cell_2_9 cell_3_8 cell_4_7 cell_5_6 cell_6_5 cell_7_4 cell_8_3 cell_9_2) true)))
 (let (($x4017 (and (distinct cell_1_8 cell_2_7 cell_3_6 cell_4_5 cell_5_4 cell_6_3 cell_7_2 cell_8_1) true)))
 (let (($x1833 (and (distinct cell_1_5 cell_2_4 cell_3_3 cell_4_2) true)))
 (let (($x180 (and (distinct cell_5_1 cell_6_2 cell_7_3 cell_8_4) true)))
 (let (($x2129 (and (distinct cell_2_1 cell_3_2 cell_4_3 cell_5_4 cell_6_5 cell_7_6 cell_8_7 cell_9_8) true)))
 (let (($x2908 (and (distinct cell_1_2 cell_2_3 cell_3_4 cell_4_5 cell_5_6 cell_6_7 cell_7_8 cell_8_9) true)))
 (let (($x190 (and (distinct cell_1_5 cell_2_6 cell_3_7 cell_4_8) true)))
 (and $x190 $x2908 $x2129 $x180 $x1833 $x4017 $x3217 $x2405))))))))))
(assert
 (= cell_1_8 3))
(check-sat)
